$ http://en.wikipedia.org/wiki/Survo_Puzzle, second example
$ difficulty 0
language ESSENCE' 1.0
letting r be 2
letting c be 3
letting rowsums be [9,12]
letting colsums be [9, 7, 5]
letting game be
    [
      [0, 0, 3],
      [0, 6, 0]
    ]
